p cnf 47 178
 -1 -2 10 0
 1 -10 0
 2 -10 0
 -1 -3 11 0
 1 -11 0
 3 -11 0
 -1 -4 12 0
 1 -12 0
 4 -12 0
 -1 -5 13 0
 1 -13 0
 5 -13 0
 -1 -6 14 0
 1 -14 0
 6 -14 0
 -1 -7 15 0
 1 -15 0
 7 -15 0
 -1 -8 16 0
 1 -16 0
 8 -16 0
 -1 -9 17 0
 1 -17 0
 9 -17 0
 -2 -3 18 0
 2 -18 0
 3 -18 0
 -2 -4 19 0
 2 -19 0
 4 -19 0
 -2 -5 20 0
 2 -20 0
 5 -20 0
 -2 -6 21 0
 2 -21 0
 6 -21 0
 -2 -7 22 0
 2 -22 0
 7 -22 0
 -2 -8 23 0
 2 -23 0
 8 -23 0
 -2 -9 24 0
 2 -24 0
 9 -24 0
 -3 -4 25 0
 3 -25 0
 4 -25 0
 -3 -5 26 0
 3 -26 0
 5 -26 0
 -3 -6 27 0
 3 -27 0
 6 -27 0
 -3 -7 28 0
 3 -28 0
 7 -28 0
 -3 -8 29 0
 3 -29 0
 8 -29 0
 -3 -9 30 0
 3 -30 0
 9 -30 0
 -4 -5 31 0
 4 -31 0
 5 -31 0
 -4 -6 32 0
 4 -32 0
 6 -32 0
 -4 -7 33 0
 4 -33 0
 7 -33 0
 -4 -8 34 0
 4 -34 0
 8 -34 0
 -4 -9 35 0
 4 -35 0
 9 -35 0
 -5 -6 36 0
 5 -36 0
 6 -36 0
 -5 -7 37 0
 5 -37 0
 7 -37 0
 -5 -8 38 0
 5 -38 0
 8 -38 0
 -5 -9 39 0
 5 -39 0
 9 -39 0
 -6 -7 40 0
 6 -40 0
 7 -40 0
 -6 -8 41 0
 6 -41 0
 8 -41 0
 -6 -9 42 0
 6 -42 0
 9 -42 0
 -7 -8 43 0
 7 -43 0
 8 -43 0
 -7 -9 44 0
 7 -44 0
 9 -44 0
 -8 -9 45 0
 8 -45 0
 9 -45 0
 1 2 3 0
 -1 -2 0
 -1 -3 0
 -2 -3 0
 4 5 6 0
 -4 -5 0
 -4 -6 0
 -5 -6 0
 7 8 9 0
 -7 -8 0
 -7 -9 0
 -8 -9 0
 1 4 7 0
 -1 -4 0
 -1 -7 0
 -4 -7 0
 2 5 8 0
 -2 -5 0
 -2 -8 0
 -5 -8 0
 3 6 9 0
 -3 -6 0
 -3 -9 0
 -6 -9 0
 -10 -18 0
 -10 -31 0
 -18 -31 0
 -10 -46 0
 -18 -46 0
 -31 -46 0
 -46 -36 0
 -46 -43 0
 -36 -43 0
 -46 -45 0
 -36 -45 0
 -43 -45 0
 -11 -32 0
 -11 -44 0
 -32 -44 0
 -25 -40 0
 -19 -26 0
 -19 -37 0
 -26 -37 0
 -19 -41 0
 -26 -41 0
 -37 -41 0
 -12 -20 0
 -12 -27 0
 -20 -27 0
 -12 47 0
 -20 47 0
 -27 47 0
 -47 -33 0
 -47 -38 0
 -33 -38 0
 -47 -42 0
 -33 -42 0
 -38 -42 0
 -13 -21 0
 -13 -34 0
 -21 -34 0
 -13 -39 0
 -21 -39 0
 -34 -39 0
 -14 -35 0
 -22 -29 0
 -15 -23 0
 -15 -30 0
 -23 -30 0
 -16 -24 0
